p tw 40 253
0 1
0 2
0 9
0 26
0 21
0 37
0 39
1 2
1 6
1 7
1 20
1 32
1 19
1 29
1 13
1 23
1 18
1 27
1 3
1 11
1 14
1 38
2 8
2 9
2 12
2 15
2 28
2 31
2 7
2 19
2 24
3 4
3 5
3 17
3 18
3 7
3 19
3 26
3 27
3 11
3 20
3 29
3 23
3 36
4 5
4 10
4 11
4 26
4 13
4 27
4 6
4 23
4 18
5 8
5 12
5 30
5 33
5 15
5 37
5 23
5 18
5 13
5 21
6 7
6 32
6 33
6 30
6 38
6 11
6 21
6 34
6 12
6 16
7 12
7 13
7 19
7 10
7 32
7 27
7 33
7 25
7 38
7 8
7 16
7 35
7 18
7 24
8 9
8 12
8 13
8 17
8 34
8 35
8 36
8 16
9 17
9 23
9 18
9 31
9 26
9 36
9 37
9 32
9 39
9 14
9 16
10 11
10 32
10 16
10 33
10 12
10 21
10 29
10 22
11 26
11 16
11 21
11 17
11 38
11 30
11 32
11 37
11 13
11 34
11 23
11 36
12 13
12 20
12 21
12 15
12 32
12 24
12 16
12 19
12 34
13 17
13 27
13 29
13 35
13 18
13 24
13 15
13 23
13 22
13 14
13 28
13 21
13 20
13 30
13 34
14 15
14 16
14 18
14 25
14 28
14 35
14 22
14 17
14 34
14 38
14 31
15 16
15 17
15 35
15 23
15 37
15 30
15 36
16 21
16 33
16 38
17 18
17 34
17 23
17 28
17 37
17 35
17 38
17 27
17 21
17 29
17 19
17 30
18 25
18 31
18 24
18 22
18 27
18 32
18 34
19 30
19 31
19 29
19 34
20 21
20 22
20 23
20 32
20 29
20 30
21 24
21 36
21 34
21 37
21 29
21 22
22 23
22 24
22 25
22 29
22 31
22 37
23 28
23 36
24 25
24 36
25 28
25 29
25 27
25 38
26 27
26 30
27 29
27 33
27 28
27 39
27 30
28 29
28 37
28 35
28 32
28 38
28 39
28 31
29 36
29 37
29 35
30 31
30 38
30 33
30 36
30 32
30 39
31 32
31 37
31 38
32 33
32 38
32 34
32 39
32 37
35 36
36 37
